p edge 47 530
e 1 2
e 1 4
e 1 7
e 1 11
e 1 12
e 1 14
e 1 20
e 1 22
e 1 26
e 1 28
e 1 30
e 1 31
e 1 32
e 1 33
e 1 34
e 1 36
e 1 37
e 1 43
e 1 47
e 2 5
e 2 8
e 2 11
e 2 13
e 2 14
e 2 15
e 2 16
e 2 19
e 2 20
e 2 24
e 2 26
e 2 27
e 2 29
e 2 32
e 2 35
e 2 36
e 2 38
e 2 39
e 2 42
e 2 43
e 2 44
e 2 46
e 2 47
e 3 4
e 3 5
e 3 6
e 3 7
e 3 8
e 3 9
e 3 10
e 3 12
e 3 13
e 3 17
e 3 18
e 3 20
e 3 22
e 3 23
e 3 24
e 3 26
e 3 27
e 3 28
e 3 32
e 3 33
e 3 34
e 3 37
e 3 41
e 3 43
e 3 46
e 4 8
e 4 9
e 4 10
e 4 15
e 4 16
e 4 19
e 4 22
e 4 23
e 4 25
e 4 28
e 4 31
e 4 32
e 4 34
e 4 38
e 4 40
e 4 41
e 4 42
e 4 43
e 4 45
e 4 47
e 5 8
e 5 11
e 5 17
e 5 18
e 5 21
e 5 22
e 5 26
e 5 29
e 5 31
e 5 32
e 5 36
e 5 37
e 5 38
e 5 39
e 5 41
e 5 42
e 5 44
e 5 46
e 6 7
e 6 10
e 6 11
e 6 12
e 6 13
e 6 14
e 6 18
e 6 19
e 6 20
e 6 21
e 6 22
e 6 24
e 6 27
e 6 28
e 6 29
e 6 30
e 6 32
e 6 34
e 6 36
e 6 37
e 6 38
e 6 39
e 6 41
e 6 42
e 6 43
e 6 45
e 6 47
e 7 9
e 7 10
e 7 17
e 7 18
e 7 24
e 7 25
e 7 26
e 7 27
e 7 29
e 7 35
e 7 36
e 7 37
e 7 39
e 7 40
e 7 41
e 7 44
e 7 45
e 7 47
e 8 10
e 8 11
e 8 12
e 8 17
e 8 19
e 8 20
e 8 21
e 8 22
e 8 23
e 8 26
e 8 27
e 8 28
e 8 30
e 8 31
e 8 34
e 8 39
e 8 40
e 8 42
e 8 44
e 8 45
e 8 46
e 8 47
e 9 10
e 9 12
e 9 14
e 9 15
e 9 17
e 9 20
e 9 21
e 9 22
e 9 23
e 9 25
e 9 26
e 9 28
e 9 29
e 9 30
e 9 31
e 9 32
e 9 33
e 9 39
e 9 40
e 9 41
e 9 43
e 9 44
e 9 46
e 10 11
e 10 12
e 10 13
e 10 14
e 10 15
e 10 17
e 10 19
e 10 21
e 10 23
e 10 24
e 10 29
e 10 30
e 10 31
e 10 32
e 10 36
e 10 37
e 10 39
e 10 42
e 10 46
e 10 47
e 11 12
e 11 13
e 11 14
e 11 21
e 11 22
e 11 24
e 11 25
e 11 27
e 11 31
e 11 33
e 11 34
e 11 35
e 11 37
e 11 41
e 11 42
e 11 47
e 12 13
e 12 15
e 12 17
e 12 18
e 12 19
e 12 22
e 12 23
e 12 26
e 12 27
e 12 33
e 12 36
e 12 38
e 12 39
e 12 42
e 12 43
e 12 45
e 12 46
e 12 47
e 13 14
e 13 19
e 13 26
e 13 28
e 13 31
e 13 34
e 13 36
e 13 38
e 13 39
e 13 42
e 13 43
e 13 44
e 13 45
e 13 47
e 14 15
e 14 18
e 14 24
e 14 25
e 14 28
e 14 32
e 14 36
e 14 37
e 14 40
e 14 45
e 14 46
e 14 47
e 15 16
e 15 20
e 15 21
e 15 22
e 15 23
e 15 26
e 15 30
e 15 32
e 15 37
e 15 38
e 15 41
e 15 42
e 15 47
e 16 17
e 16 18
e 16 19
e 16 21
e 16 22
e 16 23
e 16 27
e 16 29
e 16 30
e 16 33
e 16 34
e 16 40
e 16 41
e 16 43
e 16 45
e 16 47
e 17 18
e 17 21
e 17 22
e 17 23
e 17 25
e 17 26
e 17 27
e 17 29
e 17 30
e 17 31
e 17 33
e 17 35
e 17 36
e 17 37
e 17 39
e 17 41
e 17 42
e 17 47
e 18 25
e 18 28
e 18 30
e 18 32
e 18 38
e 18 39
e 18 40
e 18 45
e 19 20
e 19 23
e 19 26
e 19 27
e 19 30
e 19 31
e 19 33
e 19 34
e 19 36
e 19 40
e 19 41
e 19 42
e 19 44
e 19 45
e 20 22
e 20 25
e 20 26
e 20 29
e 20 31
e 20 32
e 20 35
e 20 37
e 20 41
e 20 42
e 20 45
e 20 47
e 21 23
e 21 25
e 21 29
e 21 30
e 21 31
e 21 34
e 21 37
e 21 40
e 21 41
e 21 43
e 21 45
e 21 46
e 22 24
e 22 25
e 22 28
e 22 32
e 22 33
e 22 36
e 22 41
e 22 43
e 22 44
e 23 24
e 23 26
e 23 27
e 23 28
e 23 29
e 23 35
e 23 37
e 23 39
e 23 41
e 23 42
e 23 43
e 23 44
e 23 45
e 23 46
e 24 25
e 24 26
e 24 27
e 24 28
e 24 31
e 24 32
e 24 35
e 24 38
e 24 39
e 24 40
e 24 43
e 24 44
e 24 45
e 25 27
e 25 28
e 25 29
e 25 30
e 25 33
e 25 35
e 25 40
e 25 46
e 26 28
e 26 29
e 26 31
e 26 32
e 26 33
e 26 35
e 26 36
e 26 38
e 26 43
e 26 46
e 27 29
e 27 30
e 27 35
e 27 36
e 27 37
e 27 38
e 27 41
e 27 42
e 28 30
e 28 33
e 28 37
e 28 41
e 28 42
e 28 44
e 28 45
e 28 46
e 29 31
e 29 33
e 29 34
e 29 37
e 29 40
e 29 41
e 29 42
e 29 46
e 30 33
e 30 37
e 30 38
e 30 40
e 30 41
e 30 43
e 30 44
e 30 45
e 30 47
e 31 35
e 31 36
e 31 39
e 31 41
e 31 43
e 31 44
e 31 45
e 31 47
e 32 34
e 32 35
e 32 36
e 32 37
e 32 38
e 32 41
e 32 42
e 32 43
e 32 45
e 32 46
e 33 34
e 33 35
e 33 39
e 33 41
e 33 42
e 33 43
e 33 45
e 34 35
e 34 37
e 34 41
e 34 43
e 34 46
e 35 37
e 35 38
e 35 39
e 35 40
e 35 41
e 35 44
e 35 45
e 35 46
e 35 47
e 36 39
e 36 40
e 36 42
e 36 45
e 36 47
e 37 39
e 37 40
e 37 43
e 37 44
e 37 45
e 37 46
e 38 39
e 38 41
e 38 44
e 38 45
e 39 40
e 39 41
e 39 43
e 39 45
e 39 46
e 39 47
e 40 42
e 40 43
e 40 44
e 40 46
e 41 42
e 41 46
e 41 47
e 42 43
e 42 44
e 42 47
e 43 46
e 44 46
e 44 47
e 45 47
e 46 47
